\ Model _copy
\ LP format - for model browsing. Use MPS format to capture full model detail.
Minimize
 
Subject To
 R2: 2.530611841988826 p - c + b_g = 1.266158476508544
 SAT: b_g <= -0.0001
Bounds
 -infinity <= p <= 0.5625
 c >= 0.25
 b_g free
End
